Geographic Exponential Decay
80 19 87 79 318 268 207 133 22 6 251 53 23 40 177 256 153 168 70 100 292 38 96 203 165 263 212 149 120 63 172 305 272 114 128 208 213 265 255 299 126 313 39 103 202 285 161 204 139 182 131 121 154 45 253 93 271 82 270 36 14 89 215 98 151 142 10 227 294 113 281 306 264 69 198 76 169 217 291 50 16
p edge 320 1323
e 0 236 1.0
e 1 195 1.0
e 1 194 5.0
e 2 269 1.0
e 2 29 1.0
e 3 219 6.0
e 4 269 1.0
e 5 209 4.0
e 6 246 11.0
e 6 163 15.0
e 6 46 3.0
e 6 238 3.0
e 6 225 10.0
e 6 218 32.0
e 6 86 50.0
e 6 26 98.0
e 6 83 86.0
e 6 106 70.0
e 6 157 9.0
e 6 143 87.0
e 6 247 54.0
e 6 21 45.0
e 6 286 12.0
e 6 88 15.0
e 6 59 43.0
e 7 171 2.0
e 8 199 1.0
e 8 221 1.0
e 9 312 1.0
e 9 250 3.0
e 9 227 96.0
e 10 50 92.0
e 10 51 85.0
e 10 24 9.0
e 10 189 100.0
e 10 292 48.0
e 10 202 75.0
e 10 32 15.0
e 10 318 11.0
e 10 286 88.0
e 10 66 9.0
e 10 2 66.0
e 10 22 61.0
e 10 319 3.0
e 10 224 55.0
e 10 227 60.0
e 10 197 82.0
e 10 102 99.0
e 11 270 28.0
e 12 163 6.0
e 12 166 7.0
e 12 128 50.0
e 13 248 3.0
e 13 298 1.0
e 14 250 18.0
e 14 3 63.0
e 14 283 80.0
e 14 44 20.0
e 14 181 81.0
e 14 246 57.0
e 14 8 82.0
e 14 30 9.0
e 14 264 46.0
e 14 306 81.0
e 14 135 57.0
e 14 112 79.0
e 14 64 93.0
e 14 87 48.0
e 14 103 83.0
e 14 274 84.0
e 14 196 92.0
e 15 198 20.0
e 16 165 40.0
e 16 190 59.0
e 16 134 5.0
e 16 66 97.0
e 16 318 49.0
e 16 174 95.0
e 16 292 29.0
e 16 311 34.0
e 16 96 92.0
e 16 18 41.0
e 16 263 42.0
e 16 307 1.0
e 16 137 1.0
e 16 41 6.0
e 16 161 23.0
e 16 184 46.0
e 16 308 81.0
e 17 44 5.0
e 17 244 5.0
e 19 114 33.0
e 19 87 38.0
e 19 187 4.0
e 19 158 97.0
e 19 141 62.0
e 19 168 100.0
e 19 93 79.0
e 19 170 10.0
e 19 81 8.0
e 19 268 22.0
e 19 23 68.0
e 19 263 48.0
e 19 303 81.0
e 19 249 7.0
e 19 231 12.0
e 19 112 67.0
e 19 137 13.0
e 20 270 57.0
e 20 204 83.0
e 20 61 6.0
e 22 47 98.0
e 22 206 18.0
e 22 89 99.0
e 22 50 17.0
e 22 171 75.0
e 22 31 67.0
e 22 103 75.0
e 22 184 1.0
e 22 88 49.0
e 22 32 16.0
e 22 254 100.0
e 22 169 98.0
e 22 40 22.0
e 22 104 2.0
e 22 290 97.0
e 22 268 88.0
e 23 306 70.0
e 23 113 11.0
e 23 98 76.0
e 23 308 53.0
e 23 127 8.0
e 23 40 58.0
e 23 6 9.0
e 23 200 10.0
e 23 252 100.0
e 23 110 37.0
e 23 16 5.0
e 23 193 64.0
e 23 317 55.0
e 23 125 45.0
e 23 282 54.0
e 23 8 12.0
e 25 177 73.0
e 26 119 1.0
e 27 75 6.0
e 27 314 1.0
e 28 97 3.0
e 29 216 1.0
e 33 87 71.0
e 33 133 73.0
e 34 169 58.0
e 35 7 3.0
e 36 39 87.0
e 36 61 66.0
e 36 49 65.0
e 36 77 81.0
e 36 131 1.0
e 36 118 96.0
e 36 99 54.0
e 36 200 21.0
e 36 188 46.0
e 36 106 62.0
e 36 162 5.0
e 36 40 43.0
e 36 71 15.0
e 36 235 31.0
e 36 91 76.0
e 36 229 33.0
e 36 3 47.0
e 37 44 2.0
e 38 169 100.0
e 38 23 51.0
e 38 217 82.0
e 38 288 27.0
e 38 193 94.0
e 38 101 28.0
e 38 149 8.0
e 38 178 30.0
e 38 46 57.0
e 38 63 27.0
e 38 260 8.0
e 38 95 79.0
e 38 255 99.0
e 38 243 68.0
e 38 168 33.0
e 38 68 61.0
e 38 151 74.0
e 39 83 8.0
e 39 52 63.0
e 39 103 2.0
e 39 296 38.0
e 39 53 16.0
e 39 213 48.0
e 39 10 54.0
e 39 33 69.0
e 39 142 49.0
e 39 64 5.0
e 39 138 33.0
e 39 19 63.0
e 39 192 18.0
e 39 237 98.0
e 39 65 98.0
e 39 313 31.0
e 40 51 55.0
e 40 193 92.0
e 40 226 70.0
e 40 80 32.0
e 40 270 79.0
e 40 301 45.0
e 40 154 19.0
e 40 274 98.0
e 40 227 41.0
e 40 94 82.0
e 40 180 48.0
e 40 161 21.0
e 40 208 82.0
e 40 296 35.0
e 41 190 6.0
e 41 248 12.0
e 42 297 5.0
e 42 54 5.0
e 43 9 1.0
e 45 235 57.0
e 45 153 47.0
e 45 17 65.0
e 45 72 29.0
e 45 212 82.0
e 45 94 10.0
e 45 305 9.0
e 45 79 31.0
e 45 271 80.0
e 45 225 6.0
e 45 123 26.0
e 45 280 3.0
e 45 7 14.0
e 45 80 26.0
e 45 139 4.0
e 45 31 28.0
e 45 167 29.0
e 47 85 3.0
e 47 256 16.0
e 48 109 3.0
e 48 34 5.0
e 50 93 14.0
e 50 141 97.0
e 50 178 75.0
e 50 292 52.0
e 50 9 7.0
e 50 74 31.0
e 50 143 93.0
e 50 187 27.0
e 50 237 83.0
e 50 295 95.0
e 50 265 43.0
e 50 276 89.0
e 50 134 98.0
e 50 305 59.0
e 50 191 18.0
e 51 192 17.0
e 51 191 7.0
e 51 45 92.0
e 53 79 87.0
e 53 181 37.0
e 53 247 87.0
e 53 2 69.0
e 53 137 91.0
e 53 161 54.0
e 53 272 41.0
e 53 258 9.0
e 53 116 21.0
e 53 129 79.0
e 53 64 41.0
e 53 81 14.0
e 53 135 30.0
e 53 214 56.0
e 53 170 98.0
e 53 236 20.0
e 55 138 2.0
e 56 21 21.0
e 56 120 11.0
e 56 209 8.0
e 56 260 5.0
e 56 75 9.0
e 57 155 4.0
e 57 246 5.0
e 58 101 6.0
e 58 136 7.0
e 58 36 36.0
e 60 121 61.0
e 60 296 6.0
e 62 16 31.0
e 63 129 61.0
e 63 200 7.0
e 63 64 13.0
e 63 226 83.0
e 63 206 68.0
e 63 201 92.0
e 63 137 3.0
e 63 113 37.0
e 63 305 35.0
e 63 203 59.0
e 63 76 3.0
e 63 237 73.0
e 63 171 94.0
e 63 277 33.0
e 63 57 100.0
e 63 21 97.0
e 64 67 49.0
e 64 170 33.0
e 64 15 43.0
e 64 85 33.0
e 64 144 11.0
e 67 240 11.0
e 67 200 1.0
e 68 200 6.0
e 69 254 4.0
e 69 85 33.0
e 69 250 50.0
e 69 147 45.0
e 69 109 12.0
e 69 87 61.0
e 69 53 11.0
e 69 316 99.0
e 69 174 67.0
e 69 22 46.0
e 69 101 74.0
e 69 292 8.0
e 69 70 77.0
e 69 170 51.0
e 69 3 65.0
e 69 242 84.0
e 69 11 53.0
e 70 228 31.0
e 70 27 20.0
e 70 71 58.0
e 70 210 53.0
e 70 56 44.0
e 70 259 80.0
e 70 45 69.0
e 70 39 96.0
e 70 103 49.0
e 70 33 26.0
e 70 214 47.0
e 70 283 68.0
e 70 195 74.0
e 70 0 20.0
e 70 47 13.0
e 70 133 14.0
e 73 126 45.0
e 73 117 6.0
e 74 185 6.0
e 74 40 13.0
e 76 144 42.0
e 76 216 89.0
e 76 283 14.0
e 76 45 10.0
e 76 295 65.0
e 76 181 43.0
e 76 62 93.0
e 76 260 62.0
e 76 99 47.0
e 76 91 73.0
e 76 47 62.0
e 76 101 19.0
e 76 39 18.0
e 76 38 33.0
e 76 100 58.0
e 76 294 100.0
e 77 286 1.0
e 78 69 92.0
e 78 237 24.0
e 78 13 24.0
e 78 246 19.0
e 78 219 9.0
e 79 141 86.0
e 79 238 75.0
e 79 21 15.0
e 79 83 42.0
e 79 6 36.0
e 79 309 52.0
e 79 37 64.0
e 79 16 3.0
e 79 49 85.0
e 79 265 17.0
e 79 50 77.0
e 79 112 52.0
e 79 7 27.0
e 79 138 45.0
e 79 26 66.0
e 80 174 9.0
e 82 194 35.0
e 82 131 61.0
e 82 279 100.0
e 82 53 27.0
e 82 270 79.0
e 82 75 18.0
e 82 168 4.0
e 82 206 94.0
e 82 306 47.0
e 82 245 47.0
e 82 43 43.0
e 82 30 38.0
e 82 307 59.0
e 82 172 64.0
e 82 195 50.0
e 82 211 31.0
e 82 296 33.0
e 83 287 49.0
e 83 250 30.0
e 83 213 13.0
e 83 60 21.0
e 83 148 23.0
e 83 4 25.0
e 84 108 1.0
e 87 274 77.0
e 87 147 98.0
e 87 145 59.0
e 87 157 41.0
e 87 99 76.0
e 87 248 20.0
e 87 84 25.0
e 87 77 72.0
e 87 311 7.0
e 87 304 16.0
e 87 78 80.0
e 87 17 36.0
e 87 156 54.0
e 89 240 79.0
e 89 189 75.0
e 89 311 36.0
e 89 202 100.0
e 89 5 17.0
e 89 294 60.0
e 89 23 57.0
e 89 52 88.0
e 89 95 97.0
e 89 277 39.0
e 89 57 55.0
e 89 271 57.0
e 89 124 61.0
e 89 112 63.0
e 89 174 55.0
e 89 77 15.0
e 90 102 5.0
e 90 22 85.0
e 92 255 4.0
e 92 238 4.0
e 93 236 66.0
e 93 94 29.0
e 93 196 57.0
e 93 260 35.0
e 93 102 22.0
e 93 137 9.0
e 93 228 11.0
e 93 128 40.0
e 93 165 76.0
e 93 280 53.0
e 93 180 79.0
e 93 235 91.0
e 93 61 16.0
e 93 184 79.0
e 93 22 21.0
e 95 224 10.0
e 96 279 69.0
e 96 219 5.0
e 96 199 58.0
e 96 302 20.0
e 96 73 79.0
e 96 109 10.0
e 96 135 74.0
e 96 242 81.0
e 96 181 14.0
e 96 75 21.0
e 96 235 41.0
e 96 286 75.0
e 96 23 92.0
e 96 144 87.0
e 96 0 8.0
e 96 108 70.0
e 98 257 53.0
e 98 199 96.0
e 98 8 29.0
e 98 26 46.0
e 98 245 97.0
e 98 309 1.0
e 98 106 72.0
e 98 129 23.0
e 98 81 20.0
e 98 278 97.0
e 98 263 27.0
e 98 55 4.0
e 98 0 7.0
e 98 238 69.0
e 98 262 76.0
e 98 281 88.0
e 100 249 22.0
e 100 145 85.0
e 100 133 63.0
e 100 258 2.0
e 100 244 90.0
e 100 141 95.0
e 100 9 91.0
e 100 65 73.0
e 100 73 65.0
e 100 125 39.0
e 100 158 55.0
e 100 278 94.0
e 100 210 1.0
e 100 142 37.0
e 100 78 61.0
e 100 301 61.0
e 103 105 27.0
e 103 295 84.0
e 103 189 80.0
e 103 49 74.0
e 103 291 26.0
e 103 242 56.0
e 103 185 21.0
e 103 302 50.0
e 103 51 94.0
e 103 1 11.0
e 103 46 61.0
e 103 135 88.0
e 103 95 88.0
e 105 209 5.0
e 107 34 1.0
e 107 223 4.0
e 111 69 40.0
e 113 176 66.0
e 113 11 10.0
e 113 46 4.0
e 113 309 52.0
e 113 284 79.0
e 113 150 89.0
e 113 268 7.0
e 113 172 18.0
e 113 33 11.0
e 113 230 38.0
e 113 205 32.0
e 113 13 95.0
e 113 34 71.0
e 113 114 8.0
e 113 98 10.0
e 114 68 46.0
e 114 263 19.0
e 114 10 42.0
e 114 146 37.0
e 114 177 29.0
e 114 52 24.0
e 114 136 7.0
e 114 229 92.0
e 114 195 67.0
e 114 178 54.0
e 114 58 82.0
e 114 268 98.0
e 114 227 75.0
e 114 179 55.0
e 114 31 81.0
e 115 94 9.0
e 117 249 10.0
e 117 145 5.0
e 118 162 2.0
e 119 95 5.0
e 119 159 9.0
e 120 50 74.0
e 120 158 66.0
e 120 74 40.0
e 120 85 6.0
e 120 43 50.0
e 120 300 89.0
e 120 289 94.0
e 120 12 19.0
e 120 199 9.0
e 120 317 81.0
e 120 153 69.0
e 120 131 93.0
e 120 229 74.0
e 120 312 54.0
e 120 103 19.0
e 120 48 55.0
e 121 167 56.0
e 121 190 62.0
e 121 307 59.0
e 121 145 60.0
e 121 63 85.0
e 121 288 40.0
e 121 18 30.0
e 121 106 50.0
e 121 104 15.0
e 121 4 99.0
e 121 100 86.0
e 121 68 25.0
e 121 42 5.0
e 121 281 16.0
e 121 274 46.0
e 121 113 70.0
e 122 130 1.0
e 122 32 10.0
e 122 300 4.0
e 123 57 4.0
e 126 143 8.0
e 126 191 92.0
e 126 186 3.0
e 126 167 56.0
e 126 273 50.0
e 126 219 72.0
e 126 13 69.0
e 126 211 39.0
e 126 264 29.0
e 126 213 61.0
e 126 15 88.0
e 126 89 12.0
e 126 55 14.0
e 126 239 6.0
e 126 74 9.0
e 126 250 73.0
e 127 138 12.0
e 127 226 1.0
e 128 24 21.0
e 128 198 97.0
e 128 282 57.0
e 128 164 33.0
e 128 239 5.0
e 128 90 26.0
e 128 262 14.0
e 128 291 82.0
e 128 132 24.0
e 128 152 24.0
e 128 159 86.0
e 128 76 58.0
e 128 308 19.0
e 128 14 62.0
e 128 71 20.0
e 131 266 26.0
e 131 86 8.0
e 131 54 27.0
e 131 62 39.0
e 131 101 16.0
e 131 161 39.0
e 131 317 49.0
e 131 309 85.0
e 131 111 6.0
e 131 298 84.0
e 131 126 44.0
e 131 24 26.0
e 131 276 16.0
e 131 222 61.0
e 132 98 26.0
e 133 261 3.0
e 133 184 39.0
e 133 93 54.0
e 133 241 89.0
e 133 142 24.0
e 133 156 37.0
e 133 68 25.0
e 133 122 55.0
e 133 219 11.0
e 133 54 25.0
e 133 178 25.0
e 133 171 61.0
e 133 270 48.0
e 133 47 55.0
e 136 269 4.0
e 139 142 98.0
e 139 32 86.0
e 139 273 5.0
e 139 44 28.0
e 139 65 76.0
e 139 184 36.0
e 139 116 34.0
e 139 253 62.0
e 139 266 12.0
e 139 128 14.0
e 139 173 91.0
e 139 172 70.0
e 139 145 54.0
e 139 166 88.0
e 139 78 60.0
e 139 228 1.0
e 140 39 91.0
e 140 277 9.0
e 140 54 4.0
e 142 4 96.0
e 142 204 30.0
e 142 300 23.0
e 142 52 58.0
e 142 281 53.0
e 142 191 27.0
e 142 172 26.0
e 142 63 60.0
e 142 94 20.0
e 142 42 68.0
e 142 10 38.0
e 142 115 86.0
e 142 104 57.0
e 147 86 1.0
e 149 139 55.0
e 149 253 75.0
e 149 100 53.0
e 149 127 91.0
e 149 266 19.0
e 149 204 74.0
e 149 272 96.0
e 149 64 59.0
e 149 5 84.0
e 149 181 36.0
e 149 190 40.0
e 149 60 50.0
e 149 290 7.0
e 149 11 61.0
e 149 301 68.0
e 149 94 64.0
e 151 299 24.0
e 151 175 24.0
e 151 185 3.0
e 151 92 17.0
e 151 300 92.0
e 151 88 55.0
e 151 253 78.0
e 151 50 37.0
e 151 136 20.0
e 151 51 29.0
e 151 132 89.0
e 151 83 2.0
e 151 176 6.0
e 151 90 68.0
e 151 275 75.0
e 151 96 5.0
e 153 226 47.0
e 153 56 79.0
e 153 239 57.0
e 153 24 50.0
e 153 74 97.0
e 153 130 38.0
e 153 119 42.0
e 153 163 26.0
e 153 115 71.0
e 153 142 68.0
e 153 229 97.0
e 153 164 85.0
e 153 270 12.0
e 153 192 22.0
e 153 25 86.0
e 154 191 35.0
e 154 58 3.0
e 154 277 98.0
e 154 303 78.0
e 154 285 13.0
e 154 123 97.0
e 154 73 84.0
e 154 271 85.0
e 154 225 99.0
e 154 109 13.0
e 154 263 81.0
e 154 292 82.0
e 154 153 13.0
e 154 105 56.0
e 154 67 40.0
e 154 70 54.0
e 160 32 2.0
e 161 220 94.0
e 161 277 83.0
e 161 163 35.0
e 161 91 84.0
e 161 313 14.0
e 161 99 5.0
e 161 300 22.0
e 161 253 54.0
e 161 291 61.0
e 161 134 46.0
e 161 281 90.0
e 161 308 24.0
e 161 303 27.0
e 165 5 67.0
e 165 220 51.0
e 165 132 51.0
e 165 35 78.0
e 165 121 100.0
e 165 318 66.0
e 165 212 19.0
e 165 273 24.0
e 165 208 73.0
e 165 279 52.0
e 165 197 33.0
e 165 143 98.0
e 165 25 27.0
e 165 231 39.0
e 165 26 47.0
e 168 35 36.0
e 168 167 31.0
e 168 192 86.0
e 168 31 1.0
e 168 120 5.0
e 168 102 76.0
e 168 185 29.0
e 168 251 30.0
e 168 183 59.0
e 168 129 98.0
e 168 103 77.0
e 168 65 94.0
e 168 177 35.0
e 168 171 96.0
e 169 107 100.0
e 169 91 73.0
e 169 28 16.0
e 169 40 94.0
e 169 176 75.0
e 169 12 45.0
e 169 294 21.0
e 169 315 31.0
e 169 257 12.0
e 169 86 29.0
e 169 95 28.0
e 169 81 80.0
e 169 96 100.0
e 169 148 52.0
e 172 12 74.0
e 172 220 65.0
e 172 152 1.0
e 172 53 13.0
e 172 255 56.0
e 172 211 45.0
e 172 89 23.0
e 172 76 41.0
e 172 1 2.0
e 172 186 91.0
e 172 27 81.0
e 172 30 1.0
e 172 264 51.0
e 173 89 93.0
e 173 66 4.0
e 177 187 76.0
e 177 218 61.0
e 177 59 75.0
e 177 66 52.0
e 177 209 79.0
e 177 188 94.0
e 177 255 40.0
e 177 189 72.0
e 177 269 54.0
e 177 162 64.0
e 177 288 7.0
e 177 126 46.0
e 177 27 64.0
e 177 93 6.0
e 182 43 100.0
e 182 311 43.0
e 182 263 5.0
e 182 113 90.0
e 182 19 81.0
e 182 294 6.0
e 182 169 33.0
e 182 49 6.0
e 182 208 69.0
e 182 98 75.0
e 182 153 25.0
e 182 179 52.0
e 182 100 14.0
e 182 230 63.0
e 182 105 15.0
e 182 227 80.0
e 182 310 96.0
e 183 105 11.0
e 183 116 5.0
e 186 239 10.0
e 190 111 1.0
e 198 101 1.0
e 198 241 68.0
e 198 69 21.0
e 198 81 22.0
e 198 88 93.0
e 198 293 66.0
e 198 28 98.0
e 198 140 38.0
e 198 58 74.0
e 198 312 39.0
e 198 245 40.0
e 198 215 22.0
e 198 294 29.0
e 198 214 96.0
e 198 303 88.0
e 202 55 37.0
e 202 122 94.0
e 202 235 98.0
e 202 123 37.0
e 202 6 92.0
e 202 264 11.0
e 202 310 22.0
e 202 103 64.0
e 202 176 31.0
e 202 284 44.0
e 202 67 35.0
e 202 172 85.0
e 202 110 14.0
e 202 158 100.0
e 202 146 46.0
e 203 270 91.0
e 203 150 7.0
e 203 87 96.0
e 203 164 9.0
e 203 252 64.0
e 203 107 37.0
e 203 258 68.0
e 203 159 36.0
e 203 175 94.0
e 203 76 96.0
e 203 232 63.0
e 203 133 37.0
e 203 302 46.0
e 203 60 5.0
e 203 156 24.0
e 203 220 77.0
e 204 120 87.0
e 204 131 76.0
e 204 59 55.0
e 204 80 46.0
e 204 118 44.0
e 204 187 96.0
e 204 35 52.0
e 204 186 92.0
e 204 175 89.0
e 204 159 41.0
e 204 25 73.0
e 204 48 13.0
e 204 202 67.0
e 204 51 52.0
e 205 179 1.0
e 207 61 98.0
e 207 231 94.0
e 207 127 67.0
e 207 149 29.0
e 207 318 77.0
e 207 293 76.0
e 207 317 13.0
e 207 90 49.0
e 207 56 87.0
e 207 67 32.0
e 207 115 62.0
e 207 14 42.0
e 207 87 94.0
e 207 123 75.0
e 207 82 96.0
e 207 291 9.0
e 207 59 38.0
e 208 155 92.0
e 208 261 77.0
e 208 41 33.0
e 208 179 34.0
e 208 180 4.0
e 208 37 40.0
e 208 244 7.0
e 208 70 4.0
e 208 192 49.0
e 208 221 31.0
e 208 183 82.0
e 208 142 75.0
e 208 119 1.0
e 208 318 11.0
e 212 217 86.0
e 212 293 94.0
e 212 48 60.0
e 212 77 57.0
e 212 28 39.0
e 212 296 1.0
e 212 14 60.0
e 212 240 61.0
e 212 110 67.0
e 212 200 32.0
e 212 162 57.0
e 212 127 76.0
e 212 1 14.0
e 212 289 70.0
e 212 182 3.0
e 213 129 16.0
e 213 62 82.0
e 213 266 48.0
e 213 255 20.0
e 213 15 100.0
e 213 301 3.0
e 213 193 1.0
e 213 29 61.0
e 213 104 55.0
e 213 63 94.0
e 213 249 86.0
e 213 163 28.0
e 213 70 59.0
e 213 30 48.0
e 215 107 80.0
e 215 208 49.0
e 215 108 25.0
e 215 71 6.0
e 215 312 27.0
e 215 17 82.0
e 215 18 86.0
e 215 64 80.0
e 215 142 40.0
e 215 72 76.0
e 215 79 17.0
e 215 80 64.0
e 215 256 50.0
e 215 249 100.0
e 215 266 83.0
e 215 279 45.0
e 216 265 2.0
e 216 312 11.0
e 216 151 21.0
e 217 241 36.0
e 217 218 77.0
e 217 18 71.0
e 217 310 84.0
e 217 247 8.0
e 217 182 20.0
e 217 79 94.0
e 217 64 79.0
e 217 224 81.0
e 217 314 34.0
e 217 80 94.0
e 217 208 54.0
e 217 71 88.0
e 217 201 85.0
e 217 244 14.0
e 223 72 5.0
e 226 72 18.0
e 227 108 26.0
e 227 87 79.0
e 227 164 51.0
e 227 190 45.0
e 227 240 16.0
e 227 157 20.0
e 227 256 46.0
e 227 110 14.0
e 227 180 28.0
e 227 96 6.0
e 227 36 6.0
e 227 79 20.0
e 233 262 1.0
e 234 207 2.0
e 234 119 1.0
e 243 201 8.0
e 243 305 9.0
e 251 186 97.0
e 251 29 45.0
e 251 313 98.0
e 251 91 21.0
e 251 267 14.0
e 251 36 59.0
e 251 92 31.0
e 251 128 40.0
e 251 157 78.0
e 251 222 23.0
e 251 140 19.0
e 251 275 25.0
e 251 19 80.0
e 251 272 62.0
e 251 37 31.0
e 251 253 35.0
e 253 306 23.0
e 253 276 4.0
e 253 194 13.0
e 253 215 5.0
e 253 38 67.0
e 253 92 41.0
e 253 236 46.0
e 253 155 62.0
e 253 263 31.0
e 253 166 96.0
e 253 209 2.0
e 253 314 43.0
e 255 293 7.0
e 255 147 46.0
e 255 261 22.0
e 255 149 7.0
e 255 29 24.0
e 255 166 18.0
e 255 2 35.0
e 255 111 76.0
e 255 188 98.0
e 255 164 9.0
e 255 113 73.0
e 255 97 36.0
e 256 182 61.0
e 256 173 57.0
e 256 216 83.0
e 256 241 23.0
e 256 301 99.0
e 256 224 2.0
e 256 280 93.0
e 256 183 81.0
e 256 120 96.0
e 256 275 63.0
e 256 82 71.0
e 256 283 5.0
e 256 83 19.0
e 256 97 21.0
e 257 165 90.0
e 257 248 10.0
e 257 114 67.0
e 259 190 22.0
e 259 240 12.0
e 263 194 86.0
e 263 221 50.0
e 263 20 33.0
e 263 97 49.0
e 263 165 77.0
e 263 310 69.0
e 263 38 45.0
e 263 41 53.0
e 263 40 95.0
e 263 42 9.0
e 264 165 72.0
e 264 82 13.0
e 264 93 59.0
e 264 114 27.0
e 264 289 64.0
e 264 83 1.0
e 264 139 33.0
e 264 41 67.0
e 264 146 56.0
e 264 116 81.0
e 264 117 1.0
e 264 218 71.0
e 264 84 26.0
e 265 287 64.0
e 265 270 89.0
e 265 117 22.0
e 265 259 66.0
e 265 20 15.0
e 265 228 82.0
e 265 261 59.0
e 265 177 36.0
e 265 242 4.0
e 265 186 2.0
e 265 84 60.0
e 265 161 80.0
e 265 114 85.0
e 265 315 82.0
e 268 117 81.0
e 268 243 84.0
e 268 245 66.0
e 268 212 94.0
e 268 227 79.0
e 268 118 52.0
e 268 121 65.0
e 268 264 96.0
e 268 122 33.0
e 268 168 3.0
e 268 166 82.0
e 268 20 78.0
e 268 262 4.0
e 270 316 5.0
e 270 118 16.0
e 270 271 60.0
e 270 121 32.0
e 270 124 33.0
e 270 125 41.0
e 270 126 71.0
e 270 188 61.0
e 270 313 37.0
e 271 264 60.0
e 271 155 42.0
e 271 196 42.0
e 271 297 36.0
e 271 156 87.0
e 271 124 97.0
e 271 251 59.0
e 271 125 66.0
e 271 190 62.0
e 271 183 31.0
e 271 197 34.0
e 271 128 48.0
e 271 266 65.0
e 272 188 3.0
e 272 124 27.0
e 272 278 85.0
e 272 312 16.0
e 272 130 3.0
e 272 196 45.0
e 272 197 80.0
e 272 131 10.0
e 272 132 13.0
e 272 133 62.0
e 272 210 49.0
e 272 175 47.0
e 272 134 6.0
e 272 136 77.0
e 281 130 61.0
e 281 292 10.0
e 281 131 69.0
e 281 168 63.0
e 281 156 88.0
e 281 133 35.0
e 281 136 95.0
e 281 137 64.0
e 281 139 80.0
e 281 316 83.0
e 281 140 48.0
e 281 207 42.0
e 281 144 64.0
e 284 276 19.0
e 284 146 9.0
e 284 147 13.0
e 285 198 51.0
e 285 147 97.0
e 285 148 85.0
e 285 149 56.0
e 285 150 1.0
e 285 243 84.0
e 285 201 4.0
e 285 151 42.0
e 285 152 72.0
e 285 227 93.0
e 285 216 27.0
e 285 153 48.0
e 285 160 93.0
e 285 161 46.0
e 285 168 44.0
e 285 169 31.0
e 290 148 1.0
e 291 243 46.0
e 291 150 33.0
e 291 151 97.0
e 291 152 24.0
e 291 154 9.0
e 291 172 3.0
e 291 310 13.0
e 291 313 21.0
e 291 221 24.0
e 291 160 69.0
e 291 222 91.0
e 291 258 42.0
e 291 169 100.0
e 292 230 68.0
e 292 210 9.0
e 292 231 11.0
e 292 160 70.0
e 292 313 63.0
e 292 245 19.0
e 292 161 74.0
e 292 170 66.0
e 292 314 22.0
e 292 172 71.0
e 292 318 79.0
e 294 154 79.0
e 294 202 55.0
e 294 173 49.0
e 294 177 36.0
e 294 252 77.0
e 294 203 45.0
e 294 204 62.0
e 294 247 77.0
e 294 205 4.0
e 294 206 56.0
e 294 291 100.0
e 294 225 38.0
e 299 154 1.0
e 299 221 100.0
e 299 177 9.0
e 299 306 92.0
e 299 173 34.0
e 299 281 54.0
e 299 198 53.0
e 299 255 28.0
e 299 202 31.0
e 299 251 6.0
e 299 214 30.0
e 299 292 68.0
e 299 270 75.0
e 299 203 34.0
e 299 278 58.0
e 299 204 30.0
e 305 198 66.0
e 305 203 54.0
e 305 204 44.0
e 305 205 74.0
e 305 207 88.0
e 305 208 88.0
e 305 211 78.0
e 305 212 5.0
e 305 282 41.0
e 305 284 36.0
e 305 213 95.0
e 305 215 4.0
e 305 216 2.0
e 306 205 59.0
e 306 280 99.0
e 306 212 45.0
e 306 213 31.0
e 306 215 75.0
e 306 304 7.0
e 306 217 55.0
e 306 268 24.0
e 306 295 38.0
e 306 281 92.0
e 306 222 37.0
e 306 247 25.0
e 313 213 41.0
e 313 230 25.0
e 313 263 15.0
e 313 293 49.0
e 313 217 12.0
e 313 223 29.0
e 313 226 70.0
e 313 227 46.0
e 313 232 75.0
e 313 233 39.0
e 313 234 15.0
e 315 217 77.0
e 318 223 68.0
e 318 273 6.0
e 318 226 67.0
e 318 232 73.0
e 318 233 60.0
e 318 234 100.0
e 318 248 48.0
e 318 287 64.0
e 318 251 76.0
e 318 252 25.0
e 318 258 90.0
e 319 223 3.0
e 319 226 25.0
e 319 232 7.0
e 319 233 19.0
